WARNING: for repeatability, setting FPU to use double precision
============================[ Problem Statistics ]=============================
|                                                                             |
|  Number of variables:           100                                         |
|  Number of clauses:             449                                         |
|  Parse time:                   0.00 s                                       |
|  Eliminated clauses:           0.00 Mb                                      |
|  Simplification time:          0.00 s                                       |
|                                                                             |
============================[ Search Statistics ]==============================
| Conflicts |          ORIGINAL         |          LEARNT          | Progress |
|           |    Vars  Clauses Literals |    Limit  Clauses Lit/Cl |          |
===============================================================================
|       100 |      97      446     1361 |      163      100      6 |  0.021 % |
|       250 |      97      446     1361 |      179      166      6 |  0.020 % |
===============================================================================
restarts              : 3
conflicts             : 267            (77865 /sec)
decisions             : 342            (0.00 % random) (99738 /sec)
propagations          : 5910           (1723535 /sec)
conflict literals     : 1608           (21.45 % deleted)
Memory used           : 13.00 MB
CPU time              : 0.003429 s

SATISFIABLE
